(set-info :source |printed by MathSAT|)
(declare-fun |!{$(in_main#0)<N>}| () Int)
(declare-fun |!{$(in_main#0)<N>}.next| () Int)
(declare-fun |!{$(in_main#0)<&array1>}| () Int)
(declare-fun |!{$(in_main#0)<&array1>}.next| () Int)
(declare-fun |!{$(in_main#0)<&array2>}| () Int)
(declare-fun |!{$(in_main#0)<&array2>}.next| () Int)
(declare-fun |!{%memaddr}| () Int)
(declare-fun |!{%memaddr}.next| () Int)
(declare-fun |!{$(in_main#0)<k>}| () Int)
(declare-fun |!{$(in_main#0)<k>}.next| () Int)
(declare-fun |!{%mem.0}| () (Array Int Int))
(declare-fun |!{%mem.0}.next| () (Array Int Int))
(declare-fun |!{$(in_main#0)<k#1>}| () Int)
(declare-fun |!{$(in_main#0)<k#1>}.next| () Int)
(declare-fun |!{$(in_main#0)<$(in___VERIFIER_nondet_int#2)<h#<__VERIFIER_nondet_int.return>>>}| () Int)
(declare-fun |!{$(in_main#0)<$(in___VERIFIER_nondet_int#4)<h#<__VERIFIER_nondet_int.return>>>}| () Int)
(declare-fun |!{$(in_main#0)<$(in___VERIFIER_nondet_int#5)<h#<__VERIFIER_nondet_int.return>>>}| () Int)
(declare-fun |!{$(in_main#0)<$(in_rec_array_compare#6)<$temp.1>>}| () Int)
(declare-fun |!{$(in_main#0)<$(in_rec_array_compare#6)<$tmp>>}| () Int)
(declare-fun |!{$(in_main#0)<$(in_rec_array_compare#6)<$(in_rec_array_compare#0)<$temp.1>>>}| () Int)
(declare-fun |!{$(in_main#0)<$(in_rec_array_compare#6)<$(in_rec_array_compare#0)<$tmp>>>}| () Int)
(declare-fun !pc () Int)
(declare-fun !pc.next () Int)
(declare-fun |%{$(in_main#0)<k#1>}#1| () Int)
(declare-fun rec_array_compare<0> (Int Int Int) Int)
(declare-fun |%{$(in_main#0)<$(in_rec_array_compare#6)<$(in_rec_array_compare#0)<$temp.1>>>}#3| () Int)
(declare-fun |%{$(in_main#0)<$(in_rec_array_compare#6)<$(in_rec_array_compare#0)<$tmp>>>}#3| () Int)
(declare-fun |%{$(in_main#0)<$(in_rec_array_compare#6)<$(in_rec_array_compare#0)<rec_array_compare.return>>>}#3| () Int)
(declare-fun |%{$(in_main#0)<$(in_rec_array_compare#6)<$temp.1>>}#3| () Int)
(declare-fun |%{$(in_main#0)<$(in_rec_array_compare#6)<$tmp>>}#3| () Int)
(declare-fun |%{$(in_main#0)<$(in_rec_array_compare#6)<rec_array_compare.return>>}#3| () Int)
(define-fun .def_61 () Int (! !pc :next !pc.next))
(define-fun .def_64 () Bool (! (= .def_61 2) :init true))
(define-fun .def_284 () Bool (= .def_61 60))
(define-fun .def_151 () Bool (= !pc.next 0))
(define-fun .def_290 () Bool (and .def_151 .def_284))
(define-fun .def_259 () Bool (= |%{$(in_main#0)<$(in_rec_array_compare#6)<rec_array_compare.return>>}#3| 1))
(define-fun .def_265 () Bool (not .def_259))
(define-fun .def_10 () Int (! |!{$(in_main#0)<&array1>}| :next |!{$(in_main#0)<&array1>}.next|))
(define-fun .def_115 () Bool (= .def_10 |!{$(in_main#0)<&array1>}.next|))
(define-fun .def_8 () Int (! |!{$(in_main#0)<N>}| :next |!{$(in_main#0)<N>}.next|))
(define-fun .def_113 () Bool (= .def_8 |!{$(in_main#0)<N>}.next|))
(define-fun .def_127 () Bool (and .def_113 .def_115))
(define-fun .def_14 () Int (! |!{%memaddr}| :next |!{%memaddr}.next|))
(define-fun .def_117 () Bool (= .def_14 |!{%memaddr}.next|))
(define-fun .def_128 () Bool (and .def_117 .def_127))
(define-fun .def_12 () Int (! |!{$(in_main#0)<&array2>}| :next |!{$(in_main#0)<&array2>}.next|))
(define-fun .def_119 () Bool (= .def_12 |!{$(in_main#0)<&array2>}.next|))
(define-fun .def_129 () Bool (and .def_119 .def_128))
(define-fun .def_18 () (Array Int Int) (! |!{%mem.0}| :next |!{%mem.0}.next|))
(define-fun .def_89 () Bool (= .def_18 |!{%mem.0}.next|))
(define-fun .def_130 () Bool (and .def_89 .def_129))
(define-fun .def_16 () Int (! |!{$(in_main#0)<k>}| :next |!{$(in_main#0)<k>}.next|))
(define-fun .def_122 () Bool (= .def_16 |!{$(in_main#0)<k>}.next|))
(define-fun .def_131 () Bool (and .def_122 .def_130))
(define-fun .def_20 () Int (! |!{$(in_main#0)<k#1>}| :next |!{$(in_main#0)<k#1>}.next|))
(define-fun .def_124 () Bool (= .def_20 |!{$(in_main#0)<k#1>}.next|))
(define-fun .def_139 () Bool (and .def_124 .def_131))
(define-fun .def_281 () Bool (and .def_139 .def_265))
(define-fun .def_238 () Bool (= |!{$(in_main#0)<$(in_rec_array_compare#6)<$temp.1>>}| |%{$(in_main#0)<$(in_rec_array_compare#6)<$temp.1>>}#3|))
(define-fun .def_165 () Bool (<= .def_8 0))
(define-fun .def_257 () Bool (and .def_165 .def_238))
(define-fun .def_244 () Bool (= |!{$(in_main#0)<$(in_rec_array_compare#6)<$tmp>>}| |%{$(in_main#0)<$(in_rec_array_compare#6)<$tmp>>}#3|))
(define-fun .def_258 () Bool (and .def_244 .def_257))
(define-fun .def_260 () Bool (and .def_258 .def_259))
(define-fun .def_250 () Bool (= |%{$(in_main#0)<$(in_rec_array_compare#6)<$(in_rec_array_compare#0)<rec_array_compare.return>>>}#3| |%{$(in_main#0)<$(in_rec_array_compare#6)<rec_array_compare.return>>}#3|))
(define-fun .def_245 () Bool (= |%{$(in_main#0)<$(in_rec_array_compare#6)<$(in_rec_array_compare#0)<rec_array_compare.return>>>}#3| |%{$(in_main#0)<$(in_rec_array_compare#6)<$tmp>>}#3|))
(define-fun .def_239 () Bool (= |%{$(in_main#0)<$(in_rec_array_compare#6)<$(in_rec_array_compare#0)<rec_array_compare.return>>>}#3| |%{$(in_main#0)<$(in_rec_array_compare#6)<$temp.1>>}#3|))
(define-fun .def_228 () Bool (= |%{$(in_main#0)<$(in_rec_array_compare#6)<$(in_rec_array_compare#0)<rec_array_compare.return>>>}#3| 1))
(define-fun .def_202 () Bool (= |!{$(in_main#0)<$(in_rec_array_compare#6)<$(in_rec_array_compare#0)<$temp.1>>>}| |%{$(in_main#0)<$(in_rec_array_compare#6)<$(in_rec_array_compare#0)<$temp.1>>>}#3|))
(define-fun .def_178 () Bool (<= .def_8 1))
(define-fun .def_226 () Bool (and .def_178 .def_202))
(define-fun .def_208 () Bool (= |!{$(in_main#0)<$(in_rec_array_compare#6)<$(in_rec_array_compare#0)<$tmp>>>}| |%{$(in_main#0)<$(in_rec_array_compare#6)<$(in_rec_array_compare#0)<$tmp>>>}#3|))
(define-fun .def_227 () Bool (and .def_208 .def_226))
(define-fun .def_229 () Bool (and .def_227 .def_228))
(define-fun .def_190 () Int (+ .def_8 (- 2)))
(define-fun .def_191 () Int (rec_array_compare<0> .def_10 .def_12 .def_190))
(define-fun .def_215 () Bool (= .def_191 |%{$(in_main#0)<$(in_rec_array_compare#6)<$(in_rec_array_compare#0)<rec_array_compare.return>>>}#3|))
(define-fun .def_209 () Bool (= .def_191 |%{$(in_main#0)<$(in_rec_array_compare#6)<$(in_rec_array_compare#0)<$tmp>>>}#3|))
(define-fun .def_203 () Bool (= .def_191 |%{$(in_main#0)<$(in_rec_array_compare#6)<$(in_rec_array_compare#0)<$temp.1>>>}#3|))
(define-fun .def_173 () Int (+ .def_8 .def_12))
(define-fun .def_186 () Int (+ .def_173 (- 2)))
(define-fun .def_187 () Int (select .def_18 .def_186))
(define-fun .def_169 () Int (+ .def_8 .def_10))
(define-fun .def_183 () Int (+ .def_169 (- 2)))
(define-fun .def_184 () Int (select .def_18 .def_183))
(define-fun .def_188 () Bool (= .def_184 .def_187))
(define-fun .def_205 () Bool (and .def_188 .def_203))
(define-fun .def_211 () Bool (and .def_205 .def_209))
(define-fun .def_217 () Bool (and .def_211 .def_215))
(define-fun .def_214 () Bool (= |%{$(in_main#0)<$(in_rec_array_compare#6)<$(in_rec_array_compare#0)<rec_array_compare.return>>>}#3| 0))
(define-fun .def_189 () Bool (not .def_188))
(define-fun .def_204 () Bool (and .def_189 .def_202))
(define-fun .def_210 () Bool (and .def_204 .def_208))
(define-fun .def_216 () Bool (and .def_210 .def_214))
(define-fun .def_218 () Bool (or .def_216 .def_217))
(define-fun .def_179 () Bool (not .def_178))
(define-fun .def_219 () Bool (and .def_179 .def_218))
(define-fun .def_230 () Bool (or .def_219 .def_229))
(define-fun .def_174 () Int (+ .def_173 (- 1)))
(define-fun .def_175 () Int (select .def_18 .def_174))
(define-fun .def_170 () Int (+ .def_169 (- 1)))
(define-fun .def_171 () Int (select .def_18 .def_170))
(define-fun .def_176 () Bool (= .def_171 .def_175))
(define-fun .def_231 () Bool (and .def_176 .def_230))
(define-fun .def_241 () Bool (and .def_231 .def_239))
(define-fun .def_247 () Bool (and .def_241 .def_245))
(define-fun .def_252 () Bool (and .def_247 .def_250))
(define-fun .def_249 () Bool (= |%{$(in_main#0)<$(in_rec_array_compare#6)<rec_array_compare.return>>}#3| 0))
(define-fun .def_177 () Bool (not .def_176))
(define-fun .def_240 () Bool (and .def_177 .def_238))
(define-fun .def_246 () Bool (and .def_240 .def_244))
(define-fun .def_251 () Bool (and .def_246 .def_249))
(define-fun .def_253 () Bool (or .def_251 .def_252))
(define-fun .def_166 () Bool (not .def_165))
(define-fun .def_254 () Bool (and .def_166 .def_253))
(define-fun .def_261 () Bool (or .def_254 .def_260))
(define-fun .def_282 () Bool (and .def_261 .def_281))
(define-fun .def_158 () Bool (<= .def_8 .def_16))
(define-fun .def_283 () Bool (and .def_158 .def_282))
(define-fun .def_291 () Bool (and .def_283 .def_290))
(define-fun .def_147 () Bool (= !pc.next 171))
(define-fun .def_287 () Bool (and .def_147 .def_284))
(define-fun .def_276 () Bool (= |!{$(in_main#0)<k#1>}.next| 0))
(define-fun .def_277 () Bool (and .def_131 .def_276))
(define-fun .def_278 () Bool (and .def_259 .def_277))
(define-fun .def_279 () Bool (and .def_261 .def_278))
(define-fun .def_280 () Bool (and .def_158 .def_279))
(define-fun .def_288 () Bool (and .def_280 .def_287))
(define-fun .def_97 () Bool (= !pc.next 60))
(define-fun .def_285 () Bool (and .def_97 .def_284))
(define-fun .def_270 () Int (* (- 1) |!{$(in_main#0)<k>}.next|))
(define-fun .def_271 () Int (+ .def_16 .def_270))
(define-fun .def_272 () Bool (= .def_271 (- 1)))
(define-fun .def_162 () Int (+ .def_12 .def_16))
(define-fun .def_160 () Int (+ .def_10 .def_16))
(define-fun .def_161 () (Array Int Int) (store .def_18 .def_160 |!{$(in_main#0)<$(in___VERIFIER_nondet_int#4)<h#<__VERIFIER_nondet_int.return>>>}|))
(define-fun .def_163 () (Array Int Int) (store .def_161 .def_162 |!{$(in_main#0)<$(in___VERIFIER_nondet_int#5)<h#<__VERIFIER_nondet_int.return>>>}|))
(define-fun .def_268 () Bool (= |!{%mem.0}.next| .def_163))
(define-fun .def_269 () Bool (and .def_129 .def_268))
(define-fun .def_273 () Bool (and .def_269 .def_272))
(define-fun .def_274 () Bool (and .def_124 .def_273))
(define-fun .def_159 () Bool (not .def_158))
(define-fun .def_275 () Bool (and .def_159 .def_274))
(define-fun .def_286 () Bool (and .def_275 .def_285))
(define-fun .def_289 () Bool (or .def_286 .def_288))
(define-fun .def_292 () Bool (or .def_289 .def_291))
(define-fun .def_142 () Bool (= .def_61 171))
(define-fun .def_152 () Bool (and .def_142 .def_151))
(define-fun .def_100 () Bool (<= .def_8 .def_20))
(define-fun .def_140 () Bool (and .def_100 .def_139))
(define-fun .def_153 () Bool (and .def_140 .def_152))
(define-fun .def_148 () Bool (and .def_142 .def_147))
(define-fun .def_133 () Int (* (- 1) |!{$(in_main#0)<k#1>}.next|))
(define-fun .def_134 () Int (+ .def_20 .def_133))
(define-fun .def_135 () Bool (= .def_134 (- 1)))
(define-fun .def_136 () Bool (and .def_131 .def_135))
(define-fun .def_104 () Int (+ .def_12 .def_20))
(define-fun .def_105 () Int (select .def_18 .def_104))
(define-fun .def_102 () Int (+ .def_10 .def_20))
(define-fun .def_103 () Int (select .def_18 .def_102))
(define-fun .def_106 () Bool (= .def_103 .def_105))
(define-fun .def_107 () Int (ite .def_106 1 0))
(define-fun .def_108 () Bool (= .def_107 0))
(define-fun .def_109 () Bool (not .def_108))
(define-fun .def_137 () Bool (and .def_109 .def_136))
(define-fun .def_101 () Bool (not .def_100))
(define-fun .def_138 () Bool (and .def_101 .def_137))
(define-fun .def_149 () Bool (and .def_138 .def_148))
(define-fun .def_144 () Bool (= !pc.next 191))
(define-fun .def_145 () Bool (and .def_142 .def_144))
(define-fun .def_114 () Bool (and .def_108 .def_113))
(define-fun .def_116 () Bool (and .def_114 .def_115))
(define-fun .def_118 () Bool (and .def_116 .def_117))
(define-fun .def_120 () Bool (and .def_118 .def_119))
(define-fun .def_121 () Bool (and .def_89 .def_120))
(define-fun .def_123 () Bool (and .def_121 .def_122))
(define-fun .def_125 () Bool (and .def_123 .def_124))
(define-fun .def_126 () Bool (and .def_101 .def_125))
(define-fun .def_146 () Bool (and .def_126 .def_145))
(define-fun .def_150 () Bool (or .def_146 .def_149))
(define-fun .def_154 () Bool (or .def_150 .def_153))
(define-fun .def_98 () Bool (and .def_64 .def_97))
(define-fun .def_93 () Bool (= |!{$(in_main#0)<k#1>}.next| |%{$(in_main#0)<k#1>}#1|))
(define-fun .def_91 () Bool (= |!{$(in_main#0)<k>}.next| 0))
(define-fun .def_87 () Bool (= |!{$(in_main#0)<&array2>}.next| 2))
(define-fun .def_85 () Bool (= |!{%memaddr}.next| 3))
(define-fun .def_83 () Bool (= |!{$(in_main#0)<&array1>}.next| 1))
(define-fun .def_82 () Bool (= |!{$(in_main#0)<N>}.next| |!{$(in_main#0)<$(in___VERIFIER_nondet_int#2)<h#<__VERIFIER_nondet_int.return>>>}|))
(define-fun .def_84 () Bool (and .def_82 .def_83))
(define-fun .def_86 () Bool (and .def_84 .def_85))
(define-fun .def_88 () Bool (and .def_86 .def_87))
(define-fun .def_90 () Bool (and .def_88 .def_89))
(define-fun .def_92 () Bool (and .def_90 .def_91))
(define-fun .def_94 () Bool (and .def_92 .def_93))
(define-fun .def_77 () Bool (<= |!{$(in_main#0)<$(in___VERIFIER_nondet_int#2)<h#<__VERIFIER_nondet_int.return>>>}| 0))
(define-fun .def_78 () Bool (not .def_77))
(define-fun .def_79 () Int (ite .def_78 1 0))
(define-fun .def_80 () Bool (= .def_79 0))
(define-fun .def_81 () Bool (not .def_80))
(define-fun .def_95 () Bool (and .def_81 .def_94))
(define-fun .def_99 () Bool (and .def_95 .def_98))
(define-fun .def_155 () Bool (or .def_99 .def_154))
(define-fun .def_293 () Bool (! (or .def_155 .def_292) :trans true))
(define-fun .def_156 () Bool (= .def_61 191))
(define-fun .def_294 () Bool (! (not .def_156) :invar-property 0 :invar-property-name ||))
(assert true)
